33D32945 STP File, STP Format Version 1.0

SECTION Comment
Name "wrp3-21-10s"
Creator "Bernd Zey"
Problem "Stochastic Steiner Tree Problem"
# Stochastic Steiner tree problem instance, base file: wrp3-21.stp
# weight-scaling on, factor=0.010000 (for "big-M" edges)
# parameters:
# distribution=equal
# selectRootRandomly=0
# probabilityTerminal=33
# probabilityNonTerminal=5
# 2nd stage edge-costs in [1.1000c_e, 1.3000c_e]
END

SECTION Graph
Nodes 237
Edges 444
Scenarios 10
Root 234
E 1 6 7
E 1 214 1
E 1 215 1
E 1 216 6
E 2 216 5
E 3 214 6
E 3 216 1
E 4 215 6
E 4 216 1
E 5 10 7
E 5 209 1
E 5 210 1
E 5 211 5
E 6 211 6
E 6 212 1
E 6 213 1
E 7 209 5
E 7 211 1
E 7 212 6
E 8 210 5
E 8 211 1
E 8 213 6
E 9 14 7
E 9 204 1
E 9 205 1
E 9 206 6
E 10 206 5
E 10 207 1
E 10 208 1
E 11 204 6
E 11 206 1
E 11 207 5
E 12 205 6
E 12 206 1
E 12 208 5
E 13 190 6
E 13 196 1
E 13 197 1
E 13 198 5
E 14 198 6
E 14 202 1
E 14 203 1
E 15 196 5
E 15 198 1
E 15 202 6
E 16 197 5
E 16 198 1
E 16 203 6
E 17 191 3
E 17 194 1
E 17 195 1
E 18 20 1
E 18 201 1
E 19 21 1
E 19 194 1
E 19 195 1
E 19 200 11
E 20 22 1
E 20 200 1
E 21 178 14
E 21 193 1
E 21 199 11
E 22 192 14
E 22 199 1
E 23 148 1
E 24 145 3
E 24 148 1
E 24 150 1
E 24 151 1
E 25 149 11
E 25 158 1
E 26 170 1
E 26 179 6
E 27 28 1
E 27 172 14
E 27 182 2
E 27 193 3
E 28 184 2
E 28 191 1
E 28 194 3
E 29 162 14
E 29 170 6
E 29 179 1
E 29 180 6
E 30 73 1
E 31 33 1
E 31 138 6
E 31 155 26
E 32 142 1
E 32 143 1
E 32 146 2
E 32 165 26
E 33 35 1
E 33 137 6
E 34 36 1
E 34 137 6
E 34 142 1
E 34 143 1
E 35 136 6
E 36 136 6
E 36 141 1
E 37 42 7
E 37 139 1
E 37 140 1
E 37 147 6
E 38 147 5
E 38 153 1
E 38 154 1
E 38 156 6
E 39 139 6
E 39 147 1
E 39 153 5
E 40 140 6
E 40 147 1
E 40 154 5
E 41 132 1
E 41 133 5
E 42 133 6
E 42 134 1
E 42 135 1
E 43 132 5
E 43 133 1
E 43 134 6
E 44 133 1
E 44 135 6
E 45 50 7
E 45 127 1
E 45 129 1
E 45 130 6
E 46 130 5
E 46 131 1
E 47 127 6
E 47 130 1
E 48 129 6
E 48 130 1
E 48 131 5
E 49 106 21
E 49 115 1
E 49 119 5
E 50 119 6
E 50 122 1
E 50 123 1
E 51 103 26
E 51 119 1
E 51 122 6
E 52 115 5
E 52 119 1
E 52 123 6
E 53 60 1
E 53 74 1
E 53 117 1
E 53 124 9
E 54 61 1
E 54 74 1
E 54 121 1
E 54 126 9
E 55 124 6
E 55 128 1
E 56 117 9
E 56 124 1
E 56 128 6
E 57 121 9
E 57 126 1
E 58 75 1
E 58 86 24
E 58 110 5
E 58 112 6
E 59 75 1
E 59 76 5
E 59 111 1
E 59 114 6
E 60 112 9
E 60 116 1
E 60 118 1
E 61 114 9
E 61 118 1
E 61 120 1
E 62 97 23
E 62 109 11
E 62 112 1
E 62 116 9
E 63 111 6
E 63 114 1
E 63 120 9
E 64 88 3
E 64 92 1
E 64 96 1
E 64 101 9
E 65 91 3
E 65 96 1
E 65 98 1
E 65 107 9
E 66 75 5
E 66 76 1
E 66 101 6
E 66 110 1
E 67 76 1
E 67 107 6
E 67 111 5
E 68 92 9
E 68 99 1
E 68 101 1
E 68 110 6
E 69 98 9
E 69 107 1
E 70 77 12
E 71 77 1
E 72 94 172
E 73 179 1
E 73 183 6
E 74 118 1
E 74 125 9
E 75 113 6
E 76 104 6
E 77 78 29
E 77 85 42
E 78 79 1
E 78 80 6
E 79 81 6
E 79 99 24
E 80 81 1
E 80 83 5
E 81 82 1
E 81 84 5
E 82 86 5
E 82 109 23
E 83 84 1
E 83 93 6
E 84 86 1
E 84 95 6
E 85 87 1
E 85 90 3
E 86 97 6
E 87 88 1
E 87 92 3
E 88 89 1
E 89 91 1
E 89 96 3
E 90 92 1
E 90 99 9
E 91 94 1
E 93 95 1
E 93 100 9
E 94 98 3
E 95 97 1
E 95 102 9
E 96 104 9
E 97 105 9
E 99 109 6
E 100 102 1
E 100 103 1
E 101 104 1
E 102 105 1
E 102 106 1
E 103 106 1
E 104 107 1
E 105 108 1
E 105 116 23
E 106 108 1
E 108 115 21
E 108 117 23
E 109 110 1
E 112 113 1
E 113 114 1
E 113 118 9
E 115 128 29
E 116 117 1
E 120 121 1
E 122 127 7
E 123 129 7
E 124 125 1
E 125 126 1
E 131 132 7
E 134 139 7
E 135 140 7
E 136 137 1
E 137 138 1
E 138 142 6
E 138 160 26
E 141 143 1
E 141 144 2
E 142 163 26
E 143 145 2
E 144 145 1
E 144 148 3
E 145 146 1
E 146 150 3
E 146 169 26
E 148 149 1
E 149 151 1
E 150 152 1
E 150 173 26
E 151 152 1
E 151 158 11
E 152 159 11
E 152 175 26
E 153 155 6
E 154 157 6
E 155 156 1
E 155 160 6
E 156 157 1
E 156 161 6
E 157 162 6
E 157 170 14
E 158 159 1
E 159 185 26
E 160 161 1
E 160 163 6
E 161 162 1
E 161 164 6
E 162 166 6
E 163 164 1
E 163 165 1
E 164 166 1
E 164 167 1
E 165 167 1
E 165 169 2
E 166 168 1
E 166 180 14
E 167 168 1
E 167 171 2
E 168 172 2
E 168 182 14
E 169 171 1
E 169 173 3
E 171 172 1
E 171 174 3
E 172 176 3
E 173 174 1
E 173 175 1
E 174 176 1
E 174 177 1
E 175 177 1
E 175 185 11
E 176 178 1
E 176 193 14
E 177 178 1
E 177 187 11
E 178 189 11
E 179 181 6
E 180 181 1
E 180 182 1
E 181 183 1
E 181 184 1
E 182 184 1
E 183 186 1
E 184 186 1
E 185 187 1
E 185 188 1
E 186 191 2
E 187 189 1
E 187 190 1
E 188 190 1
E 188 196 6
E 189 192 1
E 189 199 14
E 190 192 1
E 192 197 6
E 193 194 1
E 195 201 11
E 199 200 1
E 200 201 1
E 202 204 7
E 203 205 7
E 207 209 7
E 208 210 7
E 212 214 7
E 213 215 7
E 1 217 1000
E 2 217 1000
E 3 217 1000
E 4 217 1000
E 5 218 1000
E 6 218 1000
E 7 218 1000
E 8 218 1000
E 9 219 1000
E 10 219 1000
E 11 219 1000
E 12 219 1000
E 13 220 1000
E 14 220 1000
E 15 220 1000
E 16 220 1000
E 17 221 1000
E 18 221 1000
E 19 222 1000
E 20 222 1000
E 21 223 1000
E 22 223 1000
E 23 224 1000
E 24 224 1000
E 25 224 1000
E 26 225 1000
E 27 225 1000
E 28 225 1000
E 29 225 1000
E 30 225 1000
E 31 226 1000
E 32 226 1000
E 33 227 1000
E 34 227 1000
E 35 228 1000
E 36 228 1000
E 37 229 1000
E 38 229 1000
E 39 229 1000
E 40 229 1000
E 41 230 1000
E 42 230 1000
E 43 230 1000
E 44 230 1000
E 45 231 1000
E 46 231 1000
E 47 231 1000
E 48 231 1000
E 49 232 1000
E 50 232 1000
E 51 232 1000
E 52 232 1000
E 53 233 1000
E 54 233 1000
E 55 233 1000
E 56 233 1000
E 57 233 1000
E 58 234 1000
E 59 234 1000
E 60 234 1000
E 61 234 1000
E 62 234 1000
E 63 234 1000
E 64 235 1000
E 65 235 1000
E 66 235 1000
E 67 235 1000
E 68 235 1000
E 69 235 1000
E 70 236 1000
E 71 236 1000
E 72 237 1000
E 73 225 1000
E 74 233 1000
E 75 234 1000
E 76 235 1000
END

SECTION StochasticProbabilities
SP 0.11960 0.076100 0.043500 0.13050 0.076100 0.043500 0.054400 0.11950 0.18470 0.15210
END

SECTION StochasticWeights
SE 9 9 8 9 8 8 9 8 8 9 
SE 2 2 2 2 2 2 2 2 2 2 
SE 2 2 2 2 2 2 2 2 2 2 
SE 7 7 7 7 7 7 7 7 7 7 
SE 6 6 6 6 6 6 6 6 6 6 
SE 7 7 7 7 7 7 7 7 7 7 
SE 2 2 2 2 2 2 2 2 2 2 
SE 7 7 7 7 7 7 7 7 7 7 
SE 2 2 2 2 2 2 2 2 2 2 
SE 8 9 8 8 8 9 8 8 8 8 
SE 2 2 2 2 2 2 2 2 2 2 
SE 2 2 2 2 2 2 2 2 2 2 
SE 6 6 6 6 6 6 6 6 6 6 
SE 7 7 7 7 7 7 7 7 7 7 
SE 2 2 2 2 2 2 2 2 2 2 
SE 2 2 2 2 2 2 2 2 2 2 
SE 6 6 6 6 6 6 6 6 6 6 
SE 2 2 2 2 2 2 2 2 2 2 
SE 7 7 7 7 7 7 7 7 7 7 
SE 6 6 6 6 6 6 6 6 6 6 
SE 2 2 2 2 2 2 2 2 2 2 
SE 7 7 7 7 7 7 7 7 7 7 
SE 8 9 8 8 8 9 8 9 8 8 
SE 2 2 2 2 2 2 2 2 2 2 
SE 2 2 2 2 2 2 2 2 2 2 
SE 7 7 7 7 7 7 7 7 7 7 
SE 6 6 6 6 6 6 6 6 6 6 
SE 2 2 2 2 2 2 2 2 2 2 
SE 2 2 2 2 2 2 2 2 2 2 
SE 7 7 7 7 7 7 7 7 7 7 
SE 2 2 2 2 2 2 2 2 2 2 
SE 6 6 6 6 6 6 6 6 6 6 
SE 7 7 7 7 7 7 7 7 7 7 
SE 2 2 2 2 2 2 2 2 2 2 
SE 6 6 6 6 6 6 6 6 6 6 
SE 7 7 7 7 7 7 7 7 7 7 
SE 2 2 2 2 2 2 2 2 2 2 
SE 2 2 2 2 2 2 2 2 2 2 
SE 6 6 6 6 6 6 6 6 6 6 
SE 7 7 7 7 7 7 7 7 7 7 
SE 2 2 2 2 2 2 2 2 2 2 
SE 2 2 2 2 2 2 2 2 2 2 
SE 6 6 6 6 6 6 6 6 6 6 
SE 2 2 2 2 2 2 2 2 2 2 
SE 7 7 7 7 7 7 7 7 7 7 
SE 6 6 6 6 6 6 6 6 6 6 
SE 2 2 2 2 2 2 2 2 2 2 
SE 7 7 7 7 7 7 7 7 7 7 
SE 4 4 4 4 4 4 4 4 4 4 
SE 2 2 2 2 2 2 2 2 2 2 
SE 2 2 2 2 2 2 2 2 2 2 
SE 2 2 2 2 2 2 2 2 2 2 
SE 2 2 2 2 2 2 2 2 2 2 
SE 2 2 2 2 2 2 2 2 2 2 
SE 2 2 2 2 2 2 2 2 2 2 
SE 2 2 2 2 2 2 2 2 2 2 
SE 13 13 14 13 14 13 13 13 13 13 
SE 2 2 2 2 2 2 2 2 2 2 
SE 2 2 2 2 2 2 2 2 2 2 
SE 18 16 16 17 18 18 17 18 16 16 
SE 2 2 2 2 2 2 2 2 2 2 
SE 13 14 13 13 14 13 13 14 13 13 
SE 16 17 17 17 17 16 16 17 16 16 
SE 2 2 2 2 2 2 2 2 2 2 
SE 2 2 2 2 2 2 2 2 2 2 
SE 4 4 4 4 4 4 4 4 4 4 
SE 2 2 2 2 2 2 2 2 2 2 
SE 2 2 2 2 2 2 2 2 2 2 
SE 2 2 2 2 2 2 2 2 2 2 
SE 14 14 13 14 13 13 13 13 13 13 
SE 2 2 2 2 2 2 2 2 2 2 
SE 2 2 2 2 2 2 2 2 2 2 
SE 7 7 7 7 7 7 7 7 7 7 
SE 2 2 2 2 2 2 2 2 2 2 
SE 17 18 16 16 17 18 16 16 18 16 
SE 3 3 3 3 3 3 3 3 3 3 
SE 4 4 4 4 4 4 4 4 4 4 
SE 3 3 3 3 3 3 3 3 3 3 
SE 2 2 2 2 2 2 2 2 2 2 
SE 4 4 4 4 4 4 4 4 4 4 
SE 18 18 18 16 16 16 16 16 17 16 
SE 7 7 7 7 7 7 7 7 7 7 
SE 2 2 2 2 2 2 2 2 2 2 
SE 7 7 7 7 7 7 7 7 7 7 
SE 2 2 2 2 2 2 2 2 2 2 
SE 2 2 2 2 2 2 2 2 2 2 
SE 7 7 7 7 7 7 7 7 7 7 
SE 32 32 32 33 29 30 29 29 30 33 
SE 2 2 2 2 2 2 2 2 2 2 
SE 2 2 2 2 2 2 2 2 2 2 
SE 3 3 3 3 3 3 3 3 3 3 
SE 32 32 32 29 29 32 29 33 29 29 
SE 2 2 2 2 2 2 2 2 2 2 
SE 7 7 7 7 7 7 7 7 7 7 
SE 2 2 2 2 2 2 2 2 2 2 
SE 7 7 7 7 7 7 7 7 7 7 
SE 2 2 2 2 2 2 2 2 2 2 
SE 2 2 2 2 2 2 2 2 2 2 
SE 7 7 7 7 7 7 7 7 7 7 
SE 7 7 7 7 7 7 7 7 7 7 
SE 2 2 2 2 2 2 2 2 2 2 
SE 8 8 8 9 8 9 9 8 8 8 
SE 2 2 2 2 2 2 2 2 2 2 
SE 2 2 2 2 2 2 2 2 2 2 
SE 7 7 7 7 7 7 7 7 7 7 
SE 6 6 6 6 6 6 6 6 6 6 
SE 2 2 2 2 2 2 2 2 2 2 
SE 2 2 2 2 2 2 2 2 2 2 
SE 7 7 7 7 7 7 7 7 7 7 
SE 7 7 7 7 7 7 7 7 7 7 
SE 2 2 2 2 2 2 2 2 2 2 
SE 6 6 6 6 6 6 6 6 6 6 
SE 7 7 7 7 7 7 7 7 7 7 
SE 2 2 2 2 2 2 2 2 2 2 
SE 6 6 6 6 6 6 6 6 6 6 
SE 2 2 2 2 2 2 2 2 2 2 
SE 6 6 6 6 6 6 6 6 6 6 
SE 7 7 7 7 7 7 7 7 7 7 
SE 2 2 2 2 2 2 2 2 2 2 
SE 2 2 2 2 2 2 2 2 2 2 
SE 6 6 6 6 6 6 6 6 6 6 
SE 2 2 2 2 2 2 2 2 2 2 
SE 7 7 7 7 7 7 7 7 7 7 
SE 2 2 2 2 2 2 2 2 2 2 
SE 7 7 7 7 7 7 7 7 7 7 
SE 9 8 8 8 8 8 8 9 8 9 
SE 2 2 2 2 2 2 2 2 2 2 
SE 2 2 2 2 2 2 2 2 2 2 
SE 7 7 7 7 7 7 7 7 7 7 
SE 6 6 6 6 6 6 6 6 6 6 
SE 2 2 2 2 2 2 2 2 2 2 
SE 7 7 7 7 7 7 7 7 7 7 
SE 2 2 2 2 2 2 2 2 2 2 
SE 7 7 7 7 7 7 7 7 7 7 
SE 2 2 2 2 2 2 2 2 2 2 
SE 6 6 6 6 6 6 6 6 6 6 
SE 25 24 26 26 27 26 25 24 26 25 
SE 2 2 2 2 2 2 2 2 2 2 
SE 6 6 6 6 6 6 6 6 6 6 
SE 7 7 7 7 7 7 7 7 7 7 
SE 2 2 2 2 2 2 2 2 2 2 
SE 2 2 2 2 2 2 2 2 2 2 
SE 29 31 29 30 30 33 33 33 29 33 
SE 2 2 2 2 2 2 2 2 2 2 
SE 7 7 7 7 7 7 7 7 7 7 
SE 6 6 6 6 6 6 6 6 6 6 
SE 2 2 2 2 2 2 2 2 2 2 
SE 7 7 7 7 7 7 7 7 7 7 
SE 2 2 2 2 2 2 2 2 2 2 
SE 2 2 2 2 2 2 2 2 2 2 
SE 2 2 2 2 2 2 2 2 2 2 
SE 11 10 10 10 11 11 10 10 11 11 
SE 2 2 2 2 2 2 2 2 2 2 
SE 2 2 2 2 2 2 2 2 2 2 
SE 2 2 2 2 2 2 2 2 2 2 
SE 10 10 10 11 10 10 10 10 11 11 
SE 7 7 7 7 7 7 7 7 7 7 
SE 2 2 2 2 2 2 2 2 2 2 
SE 11 11 10 10 10 10 11 10 10 10 
SE 2 2 2 2 2 2 2 2 2 2 
SE 7 7 7 7 7 7 7 7 7 7 
SE 11 10 10 10 10 11 11 10 11 11 
SE 2 2 2 2 2 2 2 2 2 2 
SE 2 2 2 2 2 2 2 2 2 2 
SE 28 27 31 29 28 27 27 28 29 31 
SE 6 6 6 6 6 6 6 6 6 6 
SE 7 7 7 7 7 7 7 7 7 7 
SE 2 2 2 2 2 2 2 2 2 2 
SE 6 6 6 6 6 6 6 6 6 6 
SE 2 2 2 2 2 2 2 2 2 2 
SE 7 7 7 7 7 7 7 7 7 7 
SE 10 10 10 10 11 10 10 10 10 10 
SE 2 2 2 2 2 2 2 2 2 2 
SE 2 2 2 2 2 2 2 2 2 2 
SE 10 10 10 10 10 10 10 10 10 11 
SE 2 2 2 2 2 2 2 2 2 2 
SE 2 2 2 2 2 2 2 2 2 2 
SE 26 26 28 29 29 27 28 26 26 26 
SE 13 13 13 14 14 14 13 13 13 13 
SE 2 2 2 2 2 2 2 2 2 2 
SE 10 10 11 10 10 11 11 11 10 11 
SE 7 7 7 7 7 7 7 7 7 7 
SE 2 2 2 2 2 2 2 2 2 2 
SE 10 11 10 10 10 10 10 10 11 10 
SE 4 4 4 4 4 4 4 4 4 4 
SE 2 2 2 2 2 2 2 2 2 2 
SE 2 2 2 2 2 2 2 2 2 2 
SE 10 10 10 10 10 11 11 10 11 11 
SE 4 4 4 4 4 4 4 4 4 4 
SE 2 2 2 2 2 2 2 2 2 2 
SE 2 2 2 2 2 2 2 2 2 2 
SE 10 11 10 10 10 10 10 10 10 11 
SE 6 6 6 6 6 6 6 6 6 6 
SE 2 2 2 2 2 2 2 2 2 2 
SE 7 7 7 7 7 7 7 7 7 7 
SE 2 2 2 2 2 2 2 2 2 2 
SE 2 2 2 2 2 2 2 2 2 2 
SE 7 7 7 7 7 7 7 7 7 7 
SE 6 6 6 6 6 6 6 6 6 6 
SE 10 10 10 10 10 10 10 10 10 10 
SE 2 2 2 2 2 2 2 2 2 2 
SE 2 2 2 2 2 2 2 2 2 2 
SE 7 7 7 7 7 7 7 7 7 7 
SE 10 10 10 11 10 10 10 10 11 10 
SE 2 2 2 2 2 2 2 2 2 2 
SE 14 15 15 14 14 15 15 14 15 14 
SE 2 2 2 2 2 2 2 2 2 2 
SE 203 196 217 205 208 192 217 209 197 218 
SE 2 2 2 2 2 2 2 2 2 2 
SE 7 7 7 7 7 7 7 7 7 7 
SE 2 2 2 2 2 2 2 2 2 2 
SE 10 11 11 11 11 11 11 10 10 10 
SE 7 7 7 7 7 7 7 7 7 7 
SE 7 7 7 7 7 7 7 7 7 7 
SE 36 32 32 36 36 36 32 32 35 33 
SE 51 52 54 49 53 51 54 49 49 54 
SE 2 2 2 2 2 2 2 2 2 2 
SE 7 7 7 7 7 7 7 7 7 7 
SE 7 7 7 7 7 7 7 7 7 7 
SE 27 27 30 30 29 28 29 27 27 29 
SE 2 2 2 2 2 2 2 2 2 2 
SE 6 6 6 6 6 6 6 6 6 6 
SE 2 2 2 2 2 2 2 2 2 2 
SE 6 6 6 6 6 6 6 6 6 6 
SE 6 6 6 6 6 6 6 6 6 6 
SE 27 26 28 29 27 27 26 26 26 26 
SE 2 2 2 2 2 2 2 2 2 2 
SE 7 7 7 7 7 7 7 7 7 7 
SE 2 2 2 2 2 2 2 2 2 2 
SE 7 7 7 7 7 7 7 7 7 7 
SE 2 2 2 2 2 2 2 2 2 2 
SE 4 4 4 4 4 4 4 4 4 4 
SE 7 7 7 7 7 7 7 7 7 7 
SE 2 2 2 2 2 2 2 2 2 2 
SE 4 4 4 4 4 4 4 4 4 4 
SE 2 2 2 2 2 2 2 2 2 2 
SE 2 2 2 2 2 2 2 2 2 2 
SE 4 4 4 4 4 4 4 4 4 4 
SE 2 2 2 2 2 2 2 2 2 2 
SE 11 11 10 10 10 10 10 10 10 10 
SE 2 2 2 2 2 2 2 2 2 2 
SE 2 2 2 2 2 2 2 2 2 2 
SE 10 11 10 11 10 10 11 10 10 10 
SE 4 4 4 4 4 4 4 4 4 4 
SE 2 2 2 2 2 2 2 2 2 2 
SE 10 11 10 10 10 10 10 10 11 11 
SE 10 10 10 11 11 10 10 10 11 11 
SE 10 10 11 10 10 10 10 10 11 11 
SE 7 7 7 7 7 7 7 7 7 7 
SE 2 2 2 2 2 2 2 2 2 2 
SE 2 2 2 2 2 2 2 2 2 2 
SE 2 2 2 2 2 2 2 2 2 2 
SE 2 2 2 2 2 2 2 2 2 2 
SE 2 2 2 2 2 2 2 2 2 2 
SE 2 2 2 2 2 2 2 2 2 2 
SE 2 2 2 2 2 2 2 2 2 2 
SE 2 2 2 2 2 2 2 2 2 2 
SE 27 27 26 27 28 28 29 27 28 27 
SE 2 2 2 2 2 2 2 2 2 2 
SE 26 24 24 24 25 26 24 27 26 27 
SE 26 26 27 26 29 28 26 27 27 28 
SE 2 2 2 2 2 2 2 2 2 2 
SE 2 2 2 2 2 2 2 2 2 2 
SE 2 2 2 2 2 2 2 2 2 2 
SE 10 11 10 10 10 10 10 11 11 10 
SE 35 33 32 36 33 32 36 36 33 34 
SE 2 2 2 2 2 2 2 2 2 2 
SE 2 2 2 2 2 2 2 2 2 2 
SE 8 8 8 8 8 9 8 8 8 8 
SE 9 8 9 8 8 8 8 9 8 8 
SE 2 2 2 2 2 2 2 2 2 2 
SE 2 2 2 2 2 2 2 2 2 2 
SE 8 8 8 8 8 8 9 9 8 9 
SE 8 9 9 9 9 8 9 9 9 9 
SE 9 8 9 8 8 9 8 9 8 8 
SE 2 2 2 2 2 2 2 2 2 2 
SE 2 2 2 2 2 2 2 2 2 2 
SE 7 7 7 7 7 7 7 7 7 7 
SE 29 32 32 29 29 29 31 31 31 32 
SE 2 2 2 2 2 2 2 2 2 2 
SE 3 3 3 3 3 3 3 3 3 3 
SE 30 29 29 31 31 31 33 29 32 32 
SE 3 3 3 3 3 3 3 3 3 3 
SE 2 2 2 2 2 2 2 2 2 2 
SE 4 4 4 4 4 4 4 4 4 4 
SE 2 2 2 2 2 2 2 2 2 2 
SE 4 4 4 4 4 4 4 4 4 4 
SE 30 29 32 29 29 31 29 33 31 29 
SE 2 2 2 2 2 2 2 2 2 2 
SE 2 2 2 2 2 2 2 2 2 2 
SE 2 2 2 2 2 2 2 2 2 2 
SE 32 30 29 30 32 29 30 33 33 33 
SE 2 2 2 2 2 2 2 2 2 2 
SE 14 13 14 13 13 14 14 13 13 14 
SE 13 13 13 13 13 13 13 13 14 13 
SE 32 29 29 33 32 31 30 29 31 33 
SE 7 7 7 7 7 7 7 7 7 7 
SE 7 7 7 7 7 7 7 7 7 7 
SE 2 2 2 2 2 2 2 2 2 2 
SE 7 7 7 7 7 7 7 7 7 7 
SE 2 2 2 2 2 2 2 2 2 2 
SE 7 7 7 7 7 7 7 7 7 7 
SE 7 7 7 7 7 7 7 7 7 7 
SE 18 16 16 18 16 18 16 18 16 16 
SE 2 2 2 2 2 2 2 2 2 2 
SE 31 29 31 31 29 29 31 33 33 33 
SE 2 2 2 2 2 2 2 2 2 2 
SE 7 7 7 7 7 7 7 7 7 7 
SE 2 2 2 2 2 2 2 2 2 2 
SE 7 7 7 7 7 7 7 7 7 7 
SE 7 7 7 7 7 7 7 7 7 7 
SE 2 2 2 2 2 2 2 2 2 2 
SE 2 2 2 2 2 2 2 2 2 2 
SE 2 2 2 2 2 2 2 2 2 2 
SE 2 2 2 2 2 2 2 2 2 2 
SE 2 2 2 2 2 2 2 2 2 2 
SE 3 3 3 3 3 3 3 3 3 3 
SE 2 2 2 2 2 2 2 2 2 2 
SE 16 16 16 16 18 16 16 16 16 17 
SE 2 2 2 2 2 2 2 2 2 2 
SE 3 3 3 3 3 3 3 3 3 3 
SE 3 3 3 3 3 3 3 3 3 3 
SE 17 16 18 18 16 17 17 17 16 16 
SE 2 2 2 2 2 2 2 2 2 2 
SE 4 4 4 4 4 4 4 4 4 4 
SE 2 2 2 2 2 2 2 2 2 2 
SE 4 4 4 4 4 4 4 4 4 4 
SE 4 4 4 4 4 4 4 4 4 4 
SE 2 2 2 2 2 2 2 2 2 2 
SE 2 2 2 2 2 2 2 2 2 2 
SE 2 2 2 2 2 2 2 2 2 2 
SE 2 2 2 2 2 2 2 2 2 2 
SE 2 2 2 2 2 2 2 2 2 2 
SE 13 13 13 13 13 13 13 14 13 13 
SE 2 2 2 2 2 2 2 2 2 2 
SE 17 17 16 18 16 16 16 16 16 16 
SE 2 2 2 2 2 2 2 2 2 2 
SE 14 13 13 13 14 14 13 14 14 13 
SE 13 13 13 13 13 13 13 13 13 13 
SE 7 7 7 7 7 7 7 7 7 7 
SE 2 2 2 2 2 2 2 2 2 2 
SE 2 2 2 2 2 2 2 2 2 2 
SE 2 2 2 2 2 2 2 2 2 2 
SE 2 2 2 2 2 2 2 2 2 2 
SE 2 2 2 2 2 2 2 2 2 2 
SE 2 2 2 2 2 2 2 2 2 2 
SE 2 2 2 2 2 2 2 2 2 2 
SE 2 2 2 2 2 2 2 2 2 2 
SE 2 2 2 2 2 2 2 2 2 2 
SE 3 3 3 3 3 3 3 3 3 3 
SE 2 2 2 2 2 2 2 2 2 2 
SE 2 2 2 2 2 2 2 2 2 2 
SE 2 2 2 2 2 2 2 2 2 2 
SE 7 7 7 7 7 7 7 7 7 7 
SE 2 2 2 2 2 2 2 2 2 2 
SE 17 16 16 16 16 17 16 16 18 18 
SE 2 2 2 2 2 2 2 2 2 2 
SE 7 7 7 7 7 7 7 7 7 7 
SE 2 2 2 2 2 2 2 2 2 2 
SE 14 13 13 14 14 13 13 13 13 14 
SE 2 2 2 2 2 2 2 2 2 2 
SE 2 2 2 2 2 2 2 2 2 2 
SE 8 8 9 8 8 9 9 8 8 9 
SE 9 9 9 8 8 8 8 8 8 8 
SE 8 9 9 9 8 9 8 8 9 8 
SE 9 8 8 8 8 8 8 9 8 8 
SE 8 8 8 8 9 8 9 9 8 9 
SE 8 8 8 8 8 8 8 8 8 9 
SE 1138 1290 1242 1278 1181 1275 1267 1281 1233 1119 
SE 1139 1270 1124 1234 1247 1280 1240 1294 1131 1284 
SE 1215 1108 1249 1177 1267 1248 1199 1209 1228 1274 
SE 1283 1297 1288 1295 1153 1289 1177 1142 1153 1140 
SE 1225 1271 1279 1230 1134 1180 1296 1296 1116 1259 
SE 1198 1141 1197 1251 1261 1242 1194 1162 1162 1182 
SE 1219 1137 1143 1230 1139 1113 1238 1113 1262 1243 
SE 1100 1218 1240 1258 1168 1156 1138 1285 1179 1146 
SE 1236 1172 1222 1222 1141 1112 1251 1267 1198 1233 
SE 1153 1234 1247 1129 1147 1116 1185 1197 1131 1145 
SE 1234 1164 1269 1141 1159 1133 1206 1205 1146 1131 
SE 1293 1191 1115 1153 1211 1110 1155 1253 1176 1219 
SE 1107 1111 1121 1151 1131 1157 1165 1178 1293 1175 
SE 1201 1216 1124 1106 1115 1222 1142 1174 1281 1298 
SE 1300 1148 1262 1268 1126 1135 1115 1139 1169 1250 
SE 1280 1112 1116 1274 1143 1135 1113 1121 1128 1191 
SE 1214 1225 1105 1265 1239 1267 1255 1164 1178 1256 
SE 1297 1105 1184 1185 1258 1215 1272 1218 1225 1221 
SE 1200 1242 1296 1138 1199 1233 1152 1145 1106 1123 
SE 1144 1237 1151 1137 1143 1246 1240 1111 1192 1204 
SE 1196 1289 1300 1119 1103 1239 1265 1180 1168 1137 
SE 1122 1133 1233 1290 1300 1268 1140 1214 1143 1284 
SE 1201 1266 1201 1226 1207 1272 1238 1249 1214 1240 
SE 1169 1177 1108 1222 1101 1293 1126 1145 1231 1295 
SE 1177 1252 1292 1179 1137 1179 1188 1185 1162 1122 
SE 1178 1202 1278 1231 1184 1202 1259 1214 1298 1189 
SE 1195 1177 1267 1229 1204 1173 1238 1159 1172 1163 
SE 1297 1231 1147 1293 1209 1134 1122 1105 1206 1240 
SE 1126 1187 1129 1250 1191 1162 1197 1136 1237 1199 
SE 1266 1172 1160 1135 1101 1149 1158 1126 1104 1226 
SE 1184 1229 1116 1285 1160 1186 1115 1259 1102 1129 
SE 1165 1126 1271 1228 1272 1136 1113 1267 1169 1219 
SE 1105 1141 1134 1269 1248 1280 1298 1271 1136 1209 
SE 1249 1187 1266 1161 1277 1133 1214 1167 1180 1253 
SE 1298 1274 1258 1172 1275 1276 1141 1260 1172 1259 
SE 1230 1263 1112 1149 1233 1159 1294 1266 1102 1117 
SE 1146 1229 1162 1262 1238 1225 1107 1179 1193 1286 
SE 1216 1110 1252 1101 1114 1289 1279 1223 1133 1151 
SE 1230 1180 1252 1106 1100 1215 1282 1200 1181 1113 
SE 1232 1100 1284 1133 1279 1237 1208 1297 1241 1218 
SE 1269 1194 1198 1281 1161 1104 1114 1270 1115 1196 
SE 1163 1194 1170 1298 1109 1198 1187 1104 1227 1145 
SE 1224 1141 1300 1136 1139 1197 1263 1249 1116 1136 
SE 1276 1205 1170 1132 1143 1112 1179 1147 1258 1222 
SE 1215 1109 1144 1103 1125 1120 1179 1178 1208 1293 
SE 1223 1189 1211 1104 1165 1232 1278 1288 1135 1286 
SE 1255 1218 1186 1105 1186 1298 1192 1168 1236 1112 
SE 1128 1184 1150 1218 1214 1237 1285 1192 1236 1198 
SE 1169 1194 1295 1139 1273 1298 1249 1155 1260 1206 
SE 1105 1109 1131 1294 1236 1180 1194 1163 1243 1287 
SE 1123 1121 1201 1255 1258 1182 1224 1203 1278 1102 
SE 1265 1132 1294 1109 1276 1236 1163 1186 1278 1193 
SE 1127 1143 1264 1284 1235 1148 1185 1277 1236 1270 
SE 1174 1237 1252 1131 1164 1153 1111 1101 1191 1192 
SE 1284 1210 1102 1231 1277 1228 1140 1231 1158 1188 
SE 1154 1245 1255 1162 1272 1177 1273 1111 1249 1242 
SE 1202 1138 1229 1262 1198 1205 1270 1216 1138 1281 
SE 1178 1287 1219 1159 1180 1252 1228 1240 1230 1201 
SE 1100 1176 1253 1154 1130 1161 1246 1267 1154 1181 
SE 1228 1176 1208 1161 1290 1267 1116 1202 1225 1129 
SE 1143 1159 1229 1194 1131 1251 1286 1217 1235 1126 
SE 1184 1255 1269 1289 1190 1197 1211 1226 1106 1211 
SE 1243 1202 1179 1239 1211 1254 1129 1118 1294 1248 
SE 1148 1150 1264 1113 1230 1230 1284 1187 1221 1185 
SE 1283 1141 1184 1149 1167 1230 1124 1243 1137 1113 
SE 1241 1175 1287 1110 1186 1229 1170 1278 1165 1156 
SE 1229 1112 1276 1162 1112 1289 1227 1102 1223 1202 
SE 1279 1270 1197 1110 1104 1105 1282 1122 1230 1299 
SE 1106 1185 1188 1263 1200 1167 1300 1151 1149 1208 
SE 1108 1142 1178 1118 1263 1153 1208 1202 1103 1166 
SE 1210 1220 1180 1294 1233 1192 1190 1118 1170 1216 
SE 1226 1280 1287 1193 1261 1121 1113 1120 1164 1103 
SE 1122 1236 1248 1266 1273 1252 1245 1156 1181 1211 
SE 1284 1211 1129 1130 1272 1290 1152 1217 1136 1252 
SE 1201 1134 1106 1225 1103 1284 1142 1118 1121 1175 
SE 1237 1195 1293 1219 1248 1272 1123 1184 1239 1203 
END

SECTION StochasticTerminals
ST 1 0 0 0 0 0 0 0 0 0 0 
ST 2 0 0 0 0 0 0 0 0 0 0 
ST 3 0 0 0 0 0 0 0 0 0 0 
ST 4 1 0 0 0 0 0 0 0 0 0 
ST 5 0 0 0 1 0 0 0 0 0 0 
ST 6 0 0 0 0 0 0 0 0 0 0 
ST 7 0 0 0 0 0 0 0 0 0 0 
ST 8 0 0 0 0 0 0 0 0 0 1 
ST 9 0 0 0 1 0 0 0 0 1 0 
ST 10 0 0 1 0 0 0 0 0 0 0 
ST 11 0 0 0 0 0 1 0 0 0 0 
ST 12 0 1 0 0 0 0 0 0 0 0 
ST 13 0 0 0 1 0 0 0 0 0 0 
ST 14 0 0 0 0 0 0 0 1 1 0 
ST 15 0 0 0 0 0 0 0 0 0 0 
ST 16 0 0 0 0 0 0 0 0 0 0 
ST 17 0 0 0 1 0 1 0 0 0 0 
ST 18 0 0 0 0 0 1 0 0 0 0 
ST 19 0 0 0 0 0 0 0 0 0 0 
ST 20 0 0 0 1 0 0 0 0 0 0 
ST 21 0 0 0 0 0 0 0 0 0 0 
ST 22 0 0 0 0 0 0 0 0 0 0 
ST 23 0 0 0 0 0 0 0 0 0 0 
ST 24 0 1 0 0 0 0 0 0 0 0 
ST 25 0 0 0 0 0 0 0 0 0 0 
ST 26 0 0 1 0 0 0 0 0 0 0 
ST 27 0 0 0 0 0 0 0 0 1 0 
ST 28 0 0 0 0 0 0 1 0 0 0 
ST 29 0 0 0 0 0 0 0 0 0 0 
ST 30 0 0 0 1 0 0 0 0 0 0 
ST 31 0 0 0 0 0 0 0 0 0 0 
ST 32 0 0 0 0 0 0 0 0 0 0 
ST 33 0 0 0 0 0 0 0 0 0 0 
ST 34 0 0 0 0 0 0 0 0 0 0 
ST 35 0 0 0 0 0 0 0 0 0 0 
ST 36 0 0 0 0 0 0 0 0 0 0 
ST 37 0 0 0 0 0 0 0 0 0 0 
ST 38 0 0 0 1 0 0 0 0 0 1 
ST 39 0 0 0 0 1 0 0 0 0 0 
ST 40 0 0 0 0 0 0 0 0 0 0 
ST 41 0 0 0 0 0 0 0 0 0 0 
ST 42 0 0 0 0 0 0 0 0 0 0 
ST 43 0 0 0 0 0 0 0 0 0 0 
ST 44 0 0 0 0 0 1 0 0 1 0 
ST 45 0 0 0 0 1 0 0 0 0 0 
ST 46 0 0 0 0 0 0 1 0 0 0 
ST 47 0 0 0 0 0 0 0 0 0 1 
ST 48 0 0 0 0 0 0 0 0 0 0 
ST 49 0 0 0 0 0 0 0 0 0 0 
ST 50 0 0 0 0 0 0 1 0 0 0 
ST 51 0 0 0 0 0 0 0 0 0 0 
ST 52 0 0 1 0 0 1 0 0 0 0 
ST 53 0 0 0 0 0 0 0 0 0 0 
ST 54 0 0 0 0 0 0 0 1 0 0 
ST 55 0 0 0 1 0 0 0 0 0 0 
ST 56 0 0 0 0 0 0 0 0 0 0 
ST 57 0 0 0 0 0 1 0 0 0 0 
ST 58 0 1 0 0 0 0 0 0 0 0 
ST 59 1 0 0 0 0 0 0 0 0 0 
ST 60 0 0 0 0 0 0 0 0 0 0 
ST 61 0 0 0 1 0 0 0 0 1 0 
ST 62 0 0 0 0 0 0 0 0 0 0 
ST 63 0 0 0 0 0 0 0 1 0 0 
ST 64 0 0 0 0 0 0 0 0 0 0 
ST 65 0 1 0 0 0 0 0 0 0 0 
ST 66 0 0 0 0 1 0 1 0 0 0 
ST 67 0 0 0 0 0 0 0 0 1 0 
ST 68 0 0 0 0 0 0 0 0 0 0 
ST 69 1 1 0 0 0 0 0 0 0 0 
ST 70 0 1 0 0 0 0 0 0 0 0 
ST 71 0 0 0 0 0 0 0 0 0 0 
ST 72 0 0 0 0 0 0 0 0 0 1 
ST 73 0 0 1 0 0 0 0 0 0 0 
ST 74 0 1 0 0 1 0 0 0 0 0 
ST 75 0 0 0 0 0 0 0 0 0 0 
ST 76 0 1 0 0 0 0 0 1 0 0 
ST 77 0 0 0 0 0 0 0 0 0 0 
ST 78 0 0 0 0 0 0 0 0 0 0 
ST 79 0 0 0 0 0 0 0 0 0 0 
ST 80 0 0 0 0 1 0 0 0 0 0 
ST 81 0 0 0 1 1 0 0 1 0 0 
ST 82 0 0 0 0 0 0 0 0 0 0 
ST 83 0 0 1 0 0 0 0 0 0 0 
ST 84 0 0 0 0 1 0 0 0 0 0 
ST 85 0 0 0 0 0 0 0 0 0 0 
ST 86 0 1 0 0 0 0 0 0 0 0 
ST 87 0 0 0 0 0 1 0 0 0 0 
ST 88 0 0 0 0 0 0 0 0 0 0 
ST 89 0 0 0 0 0 0 0 0 0 0 
ST 90 0 0 0 0 0 0 0 0 1 0 
ST 91 0 0 0 0 0 0 0 0 0 0 
ST 92 0 0 0 0 0 0 0 0 0 0 
ST 93 0 0 0 0 0 0 0 0 0 0 
ST 94 0 0 0 1 0 0 0 0 0 0 
ST 95 0 0 0 0 0 0 0 0 0 0 
ST 96 0 1 0 0 0 0 1 0 0 0 
ST 97 0 0 0 0 0 0 0 0 0 0 
ST 98 0 0 0 0 0 0 0 0 0 0 
ST 99 0 0 0 0 0 0 0 0 0 0 
ST 100 0 0 0 0 0 0 0 0 0 1 
ST 101 0 0 0 0 0 0 0 0 0 0 
ST 102 0 0 0 0 0 0 0 0 0 0 
ST 103 0 0 0 0 0 0 0 0 0 0 
ST 104 0 0 0 0 0 0 0 0 0 0 
ST 105 0 0 0 0 1 0 0 0 0 0 
ST 106 0 0 0 0 0 0 0 0 0 0 
ST 107 0 0 0 0 0 0 0 0 0 0 
ST 108 0 0 0 0 0 0 0 0 0 0 
ST 109 0 0 0 0 0 0 0 0 0 0 
ST 110 0 0 0 0 0 0 0 0 0 0 
ST 111 0 0 0 0 0 0 0 0 0 0 
ST 112 0 0 0 0 1 0 0 0 0 0 
ST 113 0 0 0 0 0 0 0 0 0 0 
ST 114 0 1 0 0 0 0 0 0 0 0 
ST 115 0 0 0 0 0 0 0 0 1 0 
ST 116 0 0 0 0 0 0 0 0 0 0 
ST 117 0 0 0 0 0 0 0 0 0 0 
ST 118 0 0 0 0 0 0 0 0 0 1 
ST 119 0 0 0 0 0 0 0 1 0 0 
ST 120 0 0 0 0 0 0 0 0 0 0 
ST 121 0 0 0 0 0 0 0 0 0 0 
ST 122 0 0 0 0 0 0 0 0 0 0 
ST 123 0 1 0 0 0 0 0 0 0 0 
ST 124 0 0 0 0 0 0 0 0 0 0 
ST 125 0 1 0 0 1 0 0 0 0 1 
ST 126 0 0 0 0 0 0 0 0 0 0 
ST 127 0 0 0 0 0 0 0 0 0 0 
ST 128 1 0 0 0 0 0 0 0 0 0 
ST 129 0 0 0 0 0 0 0 0 0 0 
ST 130 0 0 0 0 0 0 0 0 0 0 
ST 131 0 0 0 0 0 0 0 0 0 0 
ST 132 0 0 1 0 0 0 0 0 0 0 
ST 133 0 0 0 0 0 0 0 0 0 0 
ST 134 0 0 0 0 0 1 0 0 0 0 
ST 135 0 0 0 0 0 0 0 0 1 0 
ST 136 0 0 0 1 0 0 0 0 0 0 
ST 137 0 0 0 0 0 0 0 0 0 0 
ST 138 0 0 0 0 0 0 0 0 0 0 
ST 139 0 0 0 0 0 0 0 0 0 0 
ST 140 0 0 0 0 0 0 0 0 0 0 
ST 141 0 0 0 0 0 0 0 0 0 0 
ST 142 0 0 0 0 1 0 0 0 0 0 
ST 143 0 0 0 0 0 0 0 1 0 0 
ST 144 0 0 0 0 0 0 0 0 0 0 
ST 145 0 0 0 0 0 0 0 0 0 0 
ST 146 0 0 0 0 0 0 0 0 0 0 
ST 147 0 0 0 0 0 0 0 1 0 0 
ST 148 0 0 0 0 1 0 0 0 0 0 
ST 149 0 0 0 0 0 0 0 0 0 0 
ST 150 0 0 0 0 0 0 0 0 0 0 
ST 151 0 1 0 0 0 0 0 0 0 0 
ST 152 0 0 0 0 0 0 0 0 1 0 
ST 153 0 0 0 0 0 0 0 0 0 0 
ST 154 0 0 0 0 0 0 0 0 0 0 
ST 155 0 0 0 0 0 0 0 0 0 0 
ST 156 0 0 0 0 0 0 0 0 0 0 
ST 157 1 0 0 0 0 0 0 0 0 0 
ST 158 0 0 0 0 0 0 0 0 0 0 
ST 159 0 0 0 0 0 0 1 0 0 0 
ST 160 0 0 0 0 0 0 0 0 0 0 
ST 161 0 0 0 0 0 0 0 0 0 0 
ST 162 0 0 0 0 0 0 0 0 0 0 
ST 163 0 0 0 0 0 0 0 0 0 0 
ST 164 1 0 0 0 0 0 0 0 0 0 
ST 165 0 0 0 0 0 0 0 0 0 0 
ST 166 0 0 0 0 1 0 0 0 0 0 
ST 167 0 0 1 0 1 0 0 1 1 0 
ST 168 0 0 0 0 0 0 0 0 0 0 
ST 169 0 1 0 0 1 0 0 0 0 0 
ST 170 0 0 0 0 0 0 0 0 0 0 
ST 171 0 0 0 0 0 0 0 0 0 0 
ST 172 0 0 0 0 0 0 0 0 1 0 
ST 173 0 0 0 0 0 0 0 0 0 0 
ST 174 0 0 0 0 0 0 0 0 0 0 
ST 175 0 0 0 0 0 0 0 0 1 0 
ST 176 0 0 1 0 0 0 0 0 0 0 
ST 177 0 0 0 1 0 0 0 0 0 0 
ST 178 0 0 0 0 0 0 1 0 0 0 
ST 179 0 0 0 0 0 0 0 0 1 0 
ST 180 0 0 0 0 0 0 0 0 0 0 
ST 181 0 0 0 0 0 0 0 0 0 0 
ST 182 0 0 0 0 0 0 0 0 0 0 
ST 183 0 0 0 0 0 0 0 0 0 0 
ST 184 1 0 0 0 0 0 0 0 0 0 
ST 185 0 0 0 0 0 1 1 0 0 0 
ST 186 0 0 0 0 0 0 0 0 0 0 
ST 187 0 0 0 1 0 0 1 0 0 0 
ST 188 0 0 0 0 0 0 0 0 0 0 
ST 189 1 0 0 0 0 0 0 0 0 1 
ST 190 0 0 0 0 0 0 0 0 0 0 
ST 191 0 0 0 0 0 0 1 0 0 0 
ST 192 0 0 0 0 0 0 0 0 0 0 
ST 193 0 1 0 0 0 0 0 0 0 0 
ST 194 0 1 0 0 0 0 0 0 0 0 
ST 195 0 0 0 0 0 0 0 0 0 0 
ST 196 0 0 0 0 0 0 0 0 0 0 
ST 197 0 0 0 0 0 0 0 0 0 0 
ST 198 0 0 0 0 0 0 0 0 0 0 
ST 199 0 0 1 0 0 0 0 0 0 0 
ST 200 0 0 0 0 0 0 0 0 0 1 
ST 201 0 0 1 0 0 1 0 0 0 0 
ST 202 0 0 0 0 0 0 0 0 0 0 
ST 203 0 1 0 1 0 0 0 0 0 0 
ST 204 0 0 0 0 0 0 0 0 0 0 
ST 205 0 0 0 0 0 0 0 0 0 0 
ST 206 0 0 0 0 0 0 1 0 0 0 
ST 207 0 0 0 0 0 0 1 0 0 0 
ST 208 0 0 0 0 0 0 0 0 0 1 
ST 209 1 0 0 0 0 0 0 1 0 0 
ST 210 0 0 0 0 0 0 0 0 0 1 
ST 211 0 0 0 0 0 0 0 0 0 0 
ST 212 0 0 0 0 0 0 0 0 0 0 
ST 213 0 0 0 0 0 0 0 0 0 0 
ST 214 0 0 0 0 0 0 0 0 0 0 
ST 215 0 0 0 0 0 0 0 0 0 1 
ST 216 0 0 0 0 0 0 0 0 0 0 
ST 217 0 1 0 0 0 1 0 1 0 0 
ST 218 0 0 0 0 0 1 0 1 0 0 
ST 219 0 0 1 0 0 0 0 0 0 0 
ST 220 0 1 1 0 1 0 0 1 0 0 
ST 221 0 1 0 1 1 0 1 0 0 0 
ST 222 0 0 0 0 1 1 0 0 0 0 
ST 223 1 0 1 1 1 0 1 0 0 1 
ST 224 0 1 1 0 0 1 0 0 1 1 
ST 225 1 0 0 1 1 0 0 1 0 1 
ST 226 1 0 1 0 0 0 0 0 0 0 
ST 227 1 0 0 0 0 0 0 1 1 1 
ST 228 1 0 0 0 1 0 1 0 0 0 
ST 229 0 1 0 1 0 0 0 0 1 1 
ST 230 1 1 1 1 1 0 0 1 1 0 
ST 231 0 0 1 0 0 0 1 0 0 0 
ST 232 1 0 1 0 0 0 1 0 1 1 
ST 233 1 0 0 0 1 0 0 1 1 0 
ST 234 1 1 1 1 1 1 1 1 1 1 
ST 235 0 1 0 0 0 1 1 1 0 1 
ST 236 0 0 0 1 1 1 1 0 1 0 
ST 237 0 1 0 1 0 0 0 0 1 0 
END


SECTION Coordinates
DD 1 14652 14392
DD 2 14663 14392
DD 3 14658 14391
DD 4 14658 14393
DD 5 14634 14392
DD 6 14645 14392
DD 7 14639 14391
DD 8 14639 14393
DD 9 14616 14392
DD 10 14627 14392
DD 11 14622 14391
DD 12 14622 14393
DD 13 14598 14392
DD 14 14609 14392
DD 15 14603 14391
DD 16 14603 14393
DD 17 14579 14409
DD 18 14592 14409
DD 19 14580 14408
DD 20 14592 14408
DD 21 14580 14407
DD 22 14592 14407
DD 23 14579 14362
DD 24 14579 14364
DD 25 14591 14363
DD 26 14561 14408
DD 27 14576 14407
DD 28 14576 14408
DD 29 14567 14407
DD 30 14567 14410
DD 31 14561 14365
DD 32 14574 14365
DD 33 14561 14364
DD 34 14573 14364
DD 35 14561 14363
DD 36 14573 14363
DD 37 14544 14392
DD 38 14555 14392
DD 39 14550 14391
DD 40 14550 14393
DD 41 14526 14392
DD 42 14537 14392
DD 43 14531 14391
DD 44 14531 14393
DD 45 14508 14390
DD 46 14519 14390
DD 47 14514 14389
DD 48 14514 14391
DD 49 14490 14390
DD 50 14501 14390
DD 51 14495 14389
DD 52 14495 14391
DD 53 14469 14415
DD 54 14469 14417
DD 55 14484 14415
DD 56 14478 14414
DD 57 14478 14418
DD 58 14453 14415
DD 59 14453 14417
DD 60 14468 14415
DD 61 14468 14417
DD 62 14459 14414
DD 63 14459 14418
DD 64 14433 14416
DD 65 14433 14418
DD 66 14448 14416
DD 67 14448 14418
DD 68 14442 14415
DD 69 14442 14419
DD 70 14418 14372
DD 71 14430 14371
DD 72 14430 14591
DD 73 14567 14409
DD 74 14469 14416
DD 75 14453 14416
DD 76 14448 14417
DD 77 14430 14372
DD 78 14442 14389
DD 79 14442 14390
DD 80 14448 14389
DD 81 14448 14390
DD 82 14448 14391
DD 83 14453 14389
DD 84 14453 14390
DD 85 14430 14414
DD 86 14453 14391
DD 87 14430 14415
DD 88 14430 14416
DD 89 14430 14417
DD 90 14433 14414
DD 91 14430 14418
DD 92 14433 14415
DD 93 14459 14389
DD 94 14430 14419
DD 95 14459 14390
DD 96 14433 14417
DD 97 14459 14391
DD 98 14433 14419
DD 99 14442 14414
DD 100 14468 14389
DD 101 14442 14416
DD 102 14468 14390
DD 103 14469 14389
DD 104 14442 14417
DD 105 14468 14391
DD 106 14469 14390
DD 107 14442 14418
DD 108 14469 14391
DD 109 14448 14414
DD 110 14448 14415
DD 111 14453 14418
DD 112 14459 14415
DD 113 14459 14416
DD 114 14459 14417
DD 115 14490 14391
DD 116 14468 14414
DD 117 14469 14414
DD 118 14468 14416
DD 119 14495 14390
DD 120 14468 14418
DD 121 14469 14418
DD 122 14501 14389
DD 123 14501 14391
DD 124 14478 14415
DD 125 14478 14416
DD 126 14478 14417
DD 127 14508 14389
DD 128 14484 14414
DD 129 14508 14391
DD 130 14514 14390
DD 131 14519 14391
DD 132 14526 14391
DD 133 14531 14392
DD 134 14537 14391
DD 135 14537 14393
DD 136 14567 14363
DD 137 14567 14364
DD 138 14567 14365
DD 139 14544 14391
DD 140 14544 14393
DD 141 14574 14363
DD 142 14573 14365
DD 143 14574 14364
DD 144 14576 14363
DD 145 14576 14364
DD 146 14576 14365
DD 147 14550 14392
DD 148 14579 14363
DD 149 14580 14363
DD 150 14579 14365
DD 151 14580 14364
DD 152 14580 14365
DD 153 14555 14391
DD 154 14555 14393
DD 155 14561 14391
DD 156 14561 14392
DD 157 14561 14393
DD 158 14591 14364
DD 159 14591 14365
DD 160 14567 14391
DD 161 14567 14392
DD 162 14567 14393
DD 163 14573 14391
DD 164 14573 14392
DD 165 14574 14391
DD 166 14573 14393
DD 167 14574 14392
DD 168 14574 14393
DD 169 14576 14391
DD 170 14561 14407
DD 171 14576 14392
DD 172 14576 14393
DD 173 14579 14391
DD 174 14579 14392
DD 175 14580 14391
DD 176 14579 14393
DD 177 14580 14392
DD 178 14580 14393
DD 179 14567 14408
DD 180 14573 14407
DD 181 14573 14408
DD 182 14574 14407
DD 183 14573 14409
DD 184 14574 14408
DD 185 14591 14391
DD 186 14574 14409
DD 187 14591 14392
DD 188 14592 14391
DD 189 14591 14393
DD 190 14592 14392
DD 191 14576 14409
DD 192 14592 14393
DD 193 14579 14407
DD 194 14579 14408
DD 195 14580 14409
DD 196 14598 14391
DD 197 14598 14393
DD 198 14603 14392
DD 199 14591 14407
DD 200 14591 14408
DD 201 14591 14409
DD 202 14609 14391
DD 203 14609 14393
DD 204 14616 14391
DD 205 14616 14393
DD 206 14622 14392
DD 207 14627 14391
DD 208 14627 14393
DD 209 14634 14391
DD 210 14634 14393
DD 211 14639 14392
DD 212 14645 14391
DD 213 14645 14393
DD 214 14652 14391
DD 215 14652 14393
DD 216 14658 14392
DD 217 14652 14392
DD 218 14663 14392
DD 219 14658 14391
DD 220 14658 14393
DD 221 14634 14392
DD 222 14645 14392
DD 223 14639 14391
DD 224 14639 14393
DD 225 14616 14392
DD 226 14627 14392
DD 227 14622 14391
DD 228 14622 14393
DD 229 14598 14392
DD 230 14609 14392
DD 231 14603 14391
DD 232 14603 14393
DD 233 14579 14409
DD 234 14592 14409
DD 235 14580 14408
DD 236 14592 14408
DD 237 14580 14407
END

EOF
